NAME : mtspf.pid4003.gtsp.187905086.tour
COMMENT : Length = 187905086
COMMENT : Found by LKH [Keld Helsgaun] Mon Feb 10 00:36:57 2025
TYPE : TOUR
DIMENSION : 125
TOUR_SECTION
1
10
11
12
13
5
16
17
14
15
28
29
26
27
119
120
121
118
114
115
116
117
54
55
56
57
66
67
68
69
110
111
112
113
59
60
61
58
9
6
7
8
93
90
91
92
65
62
63
64
95
96
97
94
40
41
38
39
85
82
83
84
3
109
106
107
108
24
25
22
23
4
73
70
71
72
34
35
36
37
47
48
49
46
86
87
88
89
102
103
104
105
101
98
99
100
122
123
124
125
2
77
74
75
76
51
52
53
50
32
33
30
31
45
42
43
44
81
78
79
80
21
18
19
20
-1
EOF
